; Gnark SCS constraint system export
; Field: 21888242871839275222246405745257275088548364400416034343698204186575808495617
; Variables: 0 public, 1 secret, 32 internal
; Constraints: 34

(set-logic QF_FF)
(define-sort F () (_ FiniteField 21888242871839275222246405745257275088548364400416034343698204186575808495617))

(declare-const w0 F)
(declare-const w1 F)
(declare-const w2 F)
(declare-const w3 F)
(declare-const w4 F)
(declare-const w5 F)
(declare-const w6 F)
(declare-const w7 F)
(declare-const w8 F)
(declare-const w9 F)
(declare-const w10 F)
(declare-const w11 F)
(declare-const w12 F)
(declare-const w13 F)
(declare-const w14 F)
(declare-const w15 F)
(declare-const w16 F)
(declare-const w17 F)
(declare-const w18 F)
(declare-const w19 F)
(declare-const w20 F)
(declare-const w21 F)
(declare-const w22 F)
(declare-const w23 F)
(declare-const w24 F)
(declare-const w25 F)
(declare-const w26 F)
(declare-const w27 F)
(declare-const w28 F)
(declare-const w29 F)
(declare-const w30 F)
(declare-const w31 F)
(declare-const w32 F)

(define-const zero F (as ff0 F))

; Constraint 0: 1*v0 + 4*v1 + -1*v4 == 0
(assert (= (ff.add (ff.add (ff.mul (as ff1 F) w1) (ff.mul (as ff4 F) w2)) (ff.mul (as ff21888242871839275222246405745257275088548364400416034343698204186575808495616 F) w5)) zero))

; Constraint 1: 1*v4 + 16*v2 + -1*v5 == 0
(assert (= (ff.add (ff.add (ff.mul (as ff1 F) w5) (ff.mul (as ff16 F) w3)) (ff.mul (as ff21888242871839275222246405745257275088548364400416034343698204186575808495616 F) w6)) zero))

; Constraint 2: 1*v5 + 64*v3 + -1*X == 0
(assert (= (ff.add (ff.add (ff.mul (as ff1 F) w6) (ff.mul (as ff64 F) w4)) (ff.mul (as ff21888242871839275222246405745257275088548364400416034343698204186575808495616 F) w0)) zero))

; Constraint 3: -1*v0 == 0
(assert (= (ff.mul (as ff21888242871839275222246405745257275088548364400416034343698204186575808495616 F) w1) zero))

; Constraint 4: -1*v1 == 0
(assert (= (ff.mul (as ff21888242871839275222246405745257275088548364400416034343698204186575808495616 F) w2) zero))

; Constraint 5: -1*v2 == 0
(assert (= (ff.mul (as ff21888242871839275222246405745257275088548364400416034343698204186575808495616 F) w3) zero))

; Constraint 6: -1*v3 == 0
(assert (= (ff.mul (as ff21888242871839275222246405745257275088548364400416034343698204186575808495616 F) w4) zero))

; Constraint 7: -1*v6 == 0
(assert (= (ff.mul (as ff21888242871839275222246405745257275088548364400416034343698204186575808495616 F) w7) zero))

; Constraint 8: -1*v7 == 0
(assert (= (ff.mul (as ff21888242871839275222246405745257275088548364400416034343698204186575808495616 F) w8) zero))

; Constraint 9: -1*v8 == 0
(assert (= (ff.mul (as ff21888242871839275222246405745257275088548364400416034343698204186575808495616 F) w9) zero))

; Constraint 10: -1*v9 == 0
(assert (= (ff.mul (as ff21888242871839275222246405745257275088548364400416034343698204186575808495616 F) w10) zero))

; Constraint 11: -1*v10 == 0
(assert (= (ff.mul (as ff21888242871839275222246405745257275088548364400416034343698204186575808495616 F) w11) zero))

; Constraint 12: -1*v6 + 1*v11*v10 == 0
(assert (= (ff.add (ff.mul (as ff21888242871839275222246405745257275088548364400416034343698204186575808495616 F) w7) (ff.mul (as ff1 F) (ff.mul w12 w11))) zero))

; Constraint 13: 1*v10 + -1*v12 + -1 == 0
(assert (= (ff.add (ff.add (ff.mul (as ff1 F) w11) (ff.mul (as ff21888242871839275222246405745257275088548364400416034343698204186575808495616 F) w13)) (as ff21888242871839275222246405745257275088548364400416034343698204186575808495616 F)) zero))

; Constraint 14: -1*v7 + 1*v13*v12 == 0
(assert (= (ff.add (ff.mul (as ff21888242871839275222246405745257275088548364400416034343698204186575808495616 F) w8) (ff.mul (as ff1 F) (ff.mul w14 w13))) zero))

; Constraint 15: 1*v11 + 1*v13 + -1*v14 == 0
(assert (= (ff.add (ff.add (ff.mul (as ff1 F) w12) (ff.mul (as ff1 F) w14)) (ff.mul (as ff21888242871839275222246405745257275088548364400416034343698204186575808495616 F) w15)) zero))

; Constraint 16: 1*v10 + -1*v15 + -2 == 0
(assert (= (ff.add (ff.add (ff.mul (as ff1 F) w11) (ff.mul (as ff21888242871839275222246405745257275088548364400416034343698204186575808495616 F) w16)) (as ff21888242871839275222246405745257275088548364400416034343698204186575808495615 F)) zero))

; Constraint 17: -1*v8 + 1*v16*v15 == 0
(assert (= (ff.add (ff.mul (as ff21888242871839275222246405745257275088548364400416034343698204186575808495616 F) w9) (ff.mul (as ff1 F) (ff.mul w17 w16))) zero))

; Constraint 18: 1*v14 + 1*v16 + -1*v17 == 0
(assert (= (ff.add (ff.add (ff.mul (as ff1 F) w15) (ff.mul (as ff1 F) w17)) (ff.mul (as ff21888242871839275222246405745257275088548364400416034343698204186575808495616 F) w18)) zero))

; Constraint 19: 1*v10 + -1*v18 + -3 == 0
(assert (= (ff.add (ff.add (ff.mul (as ff1 F) w11) (ff.mul (as ff21888242871839275222246405745257275088548364400416034343698204186575808495616 F) w19)) (as ff21888242871839275222246405745257275088548364400416034343698204186575808495614 F)) zero))

; Constraint 20: -1*v9 + 1*v19*v18 == 0
(assert (= (ff.add (ff.mul (as ff21888242871839275222246405745257275088548364400416034343698204186575808495616 F) w10) (ff.mul (as ff1 F) (ff.mul w20 w19))) zero))

; Constraint 21: 1*v17 + 1*v19 + -1*v20 == 0
(assert (= (ff.add (ff.add (ff.mul (as ff1 F) w18) (ff.mul (as ff1 F) w20)) (ff.mul (as ff21888242871839275222246405745257275088548364400416034343698204186575808495616 F) w21)) zero))

; Constraint 22: -1*v0 + 1*v10 + -1*v21 == 0
(assert (= (ff.add (ff.add (ff.mul (as ff21888242871839275222246405745257275088548364400416034343698204186575808495616 F) w1) (ff.mul (as ff1 F) w11)) (ff.mul (as ff21888242871839275222246405745257275088548364400416034343698204186575808495616 F) w22)) zero))

; Constraint 23: -1*v1 + 1*v10 + -1*v22 == 0
(assert (= (ff.add (ff.add (ff.mul (as ff21888242871839275222246405745257275088548364400416034343698204186575808495616 F) w2) (ff.mul (as ff1 F) w11)) (ff.mul (as ff21888242871839275222246405745257275088548364400416034343698204186575808495616 F) w23)) zero))

; Constraint 24: -1*v2 + 1*v10 + -1*v23 == 0
(assert (= (ff.add (ff.add (ff.mul (as ff21888242871839275222246405745257275088548364400416034343698204186575808495616 F) w3) (ff.mul (as ff1 F) w11)) (ff.mul (as ff21888242871839275222246405745257275088548364400416034343698204186575808495616 F) w24)) zero))

; Constraint 25: -1*v3 + 1*v10 + -1*v24 == 0
(assert (= (ff.add (ff.add (ff.mul (as ff21888242871839275222246405745257275088548364400416034343698204186575808495616 F) w4) (ff.mul (as ff1 F) w11)) (ff.mul (as ff21888242871839275222246405745257275088548364400416034343698204186575808495616 F) w25)) zero))

; Constraint 26: 1*v25*v21 + -1 == 0
(assert (= (ff.add (ff.mul (as ff1 F) (ff.mul w26 w22)) (as ff21888242871839275222246405745257275088548364400416034343698204186575808495616 F)) zero))

; Constraint 27: 1*v26*v22 + -1 == 0
(assert (= (ff.add (ff.mul (as ff1 F) (ff.mul w27 w23)) (as ff21888242871839275222246405745257275088548364400416034343698204186575808495616 F)) zero))

; Constraint 28: 1*v27*v23 + -1 == 0
(assert (= (ff.add (ff.mul (as ff1 F) (ff.mul w28 w24)) (as ff21888242871839275222246405745257275088548364400416034343698204186575808495616 F)) zero))

; Constraint 29: 1*v28*v24 + -1 == 0
(assert (= (ff.add (ff.mul (as ff1 F) (ff.mul w29 w25)) (as ff21888242871839275222246405745257275088548364400416034343698204186575808495616 F)) zero))

; Constraint 30: 1*v25 + 1*v26 + -1*v29 == 0
(assert (= (ff.add (ff.add (ff.mul (as ff1 F) w26) (ff.mul (as ff1 F) w27)) (ff.mul (as ff21888242871839275222246405745257275088548364400416034343698204186575808495616 F) w30)) zero))

; Constraint 31: 1*v27 + 1*v29 + -1*v30 == 0
(assert (= (ff.add (ff.add (ff.mul (as ff1 F) w28) (ff.mul (as ff1 F) w30)) (ff.mul (as ff21888242871839275222246405745257275088548364400416034343698204186575808495616 F) w31)) zero))

; Constraint 32: 1*v28 + 1*v30 + -1*v31 == 0
(assert (= (ff.add (ff.add (ff.mul (as ff1 F) w29) (ff.mul (as ff1 F) w31)) (ff.mul (as ff21888242871839275222246405745257275088548364400416034343698204186575808495616 F) w32)) zero))

; Constraint 33: 1*v20 + -1*v31 == 0
(assert (= (ff.add (ff.mul (as ff1 F) w21) (ff.mul (as ff21888242871839275222246405745257275088548364400416034343698204186575808495616 F) w32)) zero))

(check-sat)
